     Program PHONON v.6.4.1 starts on  6Sep2019 at 17: 9:44

     K-points division:     npool     =       8
     R & G space division:  proc/nbgrp/npool/nimage =       4

     Reading data from directory:
     ./tmp/AlLi.save/

     IMPORTANT: XC functional enforced from input :
     Exchange-correlation      = PBE ( 1  4  3  4 0 0)
     Any further DFT definition will be discarded
     Please, verify this is what you really want

               file Al.pbe-mt_fhi.UPF: wavefunction(s)  4f renormalized
               file Li.pbe-mt_fhi.UPF: wavefunction(s)  2p 4f renormalized

     Calculation of q =    0.0000000   0.0000000   0.0000000

     grid_phon

     bravais-lattice index     =            0
     lattice parameter (alat)  =       8.4629  a.u.
     unit-cell volume          =     428.5982 (a.u.)^3
     number of atoms/cell      =            4
     number of atomic types    =            2
     kinetic-energy cut-off    =      80.0000  Ry
     charge density cut-off    =     320.0000  Ry
     convergence threshold     =      1.0E-12
     beta                      =       0.7000
     number of iterations used =            4
     Exchange-correlation      = PBE ( 1  4  3  4 0 0)

     celldm(1)=    8.46295  celldm(2)=    0.00000  celldm(3)=    0.00000
     celldm(4)=    0.00000  celldm(5)=    0.00000  celldm(6)=    0.00000

     crystal axes: (cart. coord. in units of alat)
               a(1) = (  1.0000  0.0000  0.0000 )
               a(2) = (  0.5000  0.8660  0.0000 )
               a(3) = (  0.5000  0.2887  0.8165 )

     reciprocal axes: (cart. coord. in units 2 pi/alat)
               b(1) = (  1.0000 -0.5774 -0.4082 )
               b(2) = (  0.0000  1.1547 -0.4082 )
               b(3) = (  0.0000  0.0000  1.2247 )

     Atoms inside the unit cell:

     Cartesian axes

     site n.  atom      mass           positions (alat units)
        1     Li   6.9400   tau(    1) = (    1.00000    0.57735    0.40825  )
        2     Li   6.9400   tau(    2) = (    1.50000    0.86603    0.61237  )
        3     Al  26.9800   tau(    3) = (    0.50000    0.28868    0.20412  )
        4     Al  26.9800   tau(    4) = (    0.00000    0.00000    0.00000  )

     Computing dynamical matrix for
                    q = (   0.0000000   0.0000000   0.0000000 )

     13 Sym.Ops. (with q -> -q+G )

     G cutoff =  580.5422  (  10348 G-vectors)     FFT grid: ( 60, 60, 60)

     number of k points=  1313  mv smearing, width (Ry)=  0.0150

     PseudoPot. # 1 for Al read from file:
     ./Al.pbe-mt_fhi.UPF
     MD5 check sum: f02d0e9e7506ff589daa9e9d05f565a0
     Pseudo is Norm-conserving, Zval =  3.0
     Generated using FHI98PP, converted with fhi2upf.x v.5.0.2
     Using radial grid of  493 points,  3 beta functions with:
                l(1) =   0
                l(2) =   1
                l(3) =   3

     PseudoPot. # 2 for Li read from file:
     ./Li.pbe-mt_fhi.UPF
     MD5 check sum: 3419f5616d131090147e867976aae79b
     Pseudo is Norm-conserving + core correction, Zval =  1.0
     Generated using FHI98PP, converted with fhi2upf.x v.5.0.2
     Using radial grid of  433 points,  3 beta functions with:
                l(1) =   0
                l(2) =   1
                l(3) =   3

     Mode symmetry, D_3d (-3m)  point group:

     Atomic displacements:
     There are   8 irreducible representations

     Representation     1      1 modes -A_1g L_1  To be done

     Representation     2      1 modes -A_1g L_1  To be done

     Representation     3      2 modes -E_g  L_3  To be done

     Representation     4      2 modes -E_g  L_3  To be done

     Representation     5      1 modes -A_2u L_2'  To be done

     Representation     6      1 modes -A_2u L_2'  To be done

     Representation     7      2 modes -E_u  L_3'  To be done

     Representation     8      2 modes -E_u  L_3'  To be done

     Alpha used in Ewald sum =   2.8000

     Representation #  1 mode #   1

     Self-consistent Calculation

     Pert. #  1: Fermi energy shift (Ry) =     7.1662E-05    -6.4623E-27

      thresh= 1.000E-02 alpha_mix =  0.700 |ddv_scf|^2 =  6.393E-09

[...]

     End of self-consistent calculation

     Convergence has been achieved

[...]

     Representation #  3 modes #   3  4

[...]

     Representation #  6 mode #   8

[...]

     Representation #  8 modes #  11 12

     Self-consistent Calculation

[...]

     Pert. #  1: Fermi energy shift (Ry) =     0.0000E+00     7.6530E-42
     Pert. #  2: Fermi energy shift (Ry) =    -2.1541E-27     0.0000E+00

      thresh= 2.987E-07 alpha_mix =  0.700 |ddv_scf|^2 =  2.834E-14

     End of self-consistent calculation

     Convergence has been achieved

     Number of q in the star =    1
     List of q in the star:
          1   0.000000000   0.000000000   0.000000000

     Diagonalizing the dynamical matrix

     q = (    0.000000000   0.000000000   0.000000000 )

     freq (    1) =      -0.094709 [THz] =      -3.159162 [cm-1]
     freq (    2) =      -0.079697 [THz] =      -2.658407 [cm-1]
     freq (    3) =      -0.079697 [THz] =      -2.658407 [cm-1]
     freq (    4) =       7.817827 [THz] =     260.774632 [cm-1]
     freq (    5) =       7.817827 [THz] =     260.774632 [cm-1]
     freq (    6) =       7.818000 [THz] =     260.780426 [cm-1]
     freq (    7) =       8.117527 [THz] =     270.771541 [cm-1]
     freq (    8) =       8.118224 [THz] =     270.794795 [cm-1]
     freq (    9) =       8.118224 [THz] =     270.794795 [cm-1]
     freq (   10) =      10.607123 [THz] =     353.815537 [cm-1]
     freq (   11) =      10.607123 [THz] =     353.815537 [cm-1]
     freq (   12) =      10.607321 [THz] =     353.822157 [cm-1]

     Mode symmetry, D_3d (-3m)  point group:

     freq (  1 -  1) =         -3.2  [cm-1]   --> A_2u L_2'       I
     freq (  2 -  3) =         -2.7  [cm-1]   --> E_u  L_3'       I
     freq (  4 -  4) =        260.8  [cm-1]   --> A_2u L_2'       I
     freq (  5 -  6) =        260.8  [cm-1]   --> E_u  L_3'       I
     freq (  7 -  7) =        270.8  [cm-1]   --> A_1g L_1        R
     freq (  8 -  9) =        270.8  [cm-1]   --> E_g  L_3        R
     freq ( 10 - 10) =        353.8  [cm-1]   --> A_1g L_1        R
     freq ( 11 - 12) =        353.8  [cm-1]   --> E_g  L_3        R

     INITIALIZATION:

     DYNAMICAL MATRIX:

      General routines

   This run was terminated on:  17:25:49   6Sep2019

   JOB DONE.